DATASET = "thpack7";
INSTANCE = "013";

WIDTH = 233;
HEIGHT = 220;
LENGTH = 587;

NO_OF_SHAPES = 20;
size = [|
  52,36,25 |
  63,37,21 |
  100,61,36 |
  79,52,36 |
  99,63,36 |
  97,49,30 |
  90,69,55 |
  91,33,28 |
  111,76,41 |
  95,44,35 |
  74,47,29 |
  100,48,20 |
  75,38,30 |
  86,68,44 |
  72,52,33 |
  112,52,25 |
  109,48,40 |
  83,74,42 |
  101,93,40 |
  76,66,31 |
|];

verticality = [|
  0,1,1 |
  0,1,1 |
  0,1,1 |
  0,1,1 |
  0,1,1 |
  0,1,1 |
  1,1,1 |
  0,1,1 |
  0,1,1 |
  0,1,1 |
  0,1,1 |
  0,0,1 |
  0,1,1 |
  1,1,1 |
  0,1,1 |
  0,0,1 |
  0,1,1 |
  1,1,1 |
  0,0,1 |
  0,0,1 |
|];

box_count = [
  12,
  11,
  9,
  8,
  9,
  9,
  10,
  8,
  4,
  5,
  8,
  6,
  8,
  8,
  8,
  5,
  7,
  16,
  6,
  15,
];
